c Lingeling SAT Solver
c 
c Version azf 92032848c138b2f33629ad24394d60a3787a1046
c 
c Copyright (C) 2010-2014 Armin Biere JKU Linz Austria.
c All rights reserved.
c 
c released Don Mai 22 22:08:00 CEST 2014
c compiled Mon Oct  6 05:55:43 PDT 2014
c 
c gcc (Ubuntu 4.8.2-19ubuntu1) 4.8.2
c -Wall -O3 -DNDBLSCR -DNLGLOG -DNDEBUG -DNCHKSOL -DNLGLPICOSAT -DNLGLDRUPLIG
c -DNLGLYALSAT
c Linux ubuntu 3.13.0-32-generic x86_64
c 
c reading input file benchmark-sat/translations/gc-zeroin.i.3-18.cnf
c no embedded options
c found 'p cnf 3708 95444' header
c read 3708 variables, 95444 clauses, 194184 literals in 0.00 seconds
c 
c  seconds         irredundant          redundant clauses agility   height
c          variables clauses conflicts large ternary binary    glue         MB
c 
c S    0.0    3708    95444         0       0      0     0   0  0.0   0.0    2
c P    1.0    2693    63744      1003     932      0 21760   5 17.9 263.8    4
c P    2.0    2693    63744      1003     932      0 21760   5 17.9 263.8    4
c S    5.0    2669    63720     21389    6578      0 21352   5 20.0  77.8    8
c S   10.0    2669    63720     89515   10967      0 21352   5 23.3  65.2   12
c S   20.0    2669    63720    232928   15048      0 21352   4 24.7  63.3   13
c S   30.0    2669    63720    376476   23693      0 21352   4 28.8  64.0   17
c S   40.0    2669    63720    521728   30368      0 21352   2 30.2  64.9   21
c S   50.0    2669    63720    649828   33027      0 21352   3 36.4  66.6   23
c S   60.0    2669    63720    771606   43503      0 21352   3 35.9  67.7   30
c S  120.0    2669    63720   1564292   59140      0 21352   3 39.4  68.5   44
c S  180.0    2669    63720   2333372   57354      0 21352   3 38.7  67.9   44
c S  240.0    2669    63720   2953323   63241      0 21352   2 43.1  70.7   62
c S  300.0    2669    63720   3586475   54372      0 21352   2 44.2  73.8   58
c S  600.0    2669    63720   6596465   92126      0 21352   2 46.7  74.2   82
c S  900.0    2669    63720   9313532  133231      0 21352   2 46.7  70.8  126
